
Welcome to IBM(R) ILOG(R) CPLEX(R) Interactive Optimizer 22.1.1.0
  with Simplex, Mixed Integer & Barrier Optimizers
5725-A06 5725-A29 5724-Y48 5724-Y49 5724-Y54 5724-Y55 5655-Y21
Copyright IBM Corp. 1988, 2022.  All Rights Reserved.

Type 'help' for a list of available commands.
Type 'help' followed by a command name for more
information on commands.

CPLEX> Selected objective sense:  MINIMIZE
Selected objective  name:  00000000
Selected RHS        name:  RHS1
Selected bound      name:  BOUND
Problem 'ee.mps' read.
Read time = 0.03 sec. (3.14 ticks)
CPLEX> New value for time limit in seconds: 7200
CPLEX> New value for parallel optimization mode: -1
CPLEX> New value for default parallel thread count: 40
CPLEX> New value for mixed integer optimality gap tolerance: 1e-13
CPLEX> Version identifier: 22.1.1.0 | 2022-11-28 | 9160aff4d
CPXPARAM_Threads                                 40
CPXPARAM_Parallel                                -1
CPXPARAM_TimeLimit                               7200
CPXPARAM_MIP_Tolerances_MIPGap                   1e-13
Found incumbent of value 0.000000 after 0.00 sec. (0.31 ticks)
Tried aggregator 2 times.
MIP Presolve eliminated 184 rows and 2745 columns.
MIP Presolve modified 5862 coefficients.
Aggregator did 713 substitutions.
Reduced MIP has 3623 rows, 7744 columns, and 28663 nonzeros.
Reduced MIP has 7744 binaries, 0 generals, 0 SOSs, and 0 indicators.
Presolve time = 0.07 sec. (68.80 ticks)
Probing time = 0.03 sec. (5.30 ticks)
Tried aggregator 1 time.
Detecting symmetries...
Reduced MIP has 3623 rows, 7744 columns, and 28663 nonzeros.
Reduced MIP has 7744 binaries, 0 generals, 0 SOSs, and 0 indicators.
Presolve time = 0.02 sec. (21.93 ticks)
Probing time = 0.02 sec. (5.11 ticks)
Clique table members: 18556.
MIP emphasis: balance optimality and feasibility.
MIP search method: dynamic search.
Parallel mode: opportunistic, using up to 40 threads.
Root relaxation solution time = 0.18 sec. (175.67 ticks)

        Nodes                                         Cuts/
   Node  Left     Objective  IInf  Best Integer    Best Bound    ItCnt     Gap

*     0+    0                            0.0000  -1.31000e+13              --- 
*     0+    0                      -5.50000e+12  -1.31000e+13           138.18%
      0     0  -1.30900e+13   102  -5.50000e+12  -1.30900e+13     3059  138.00%
*     0+    0                      -1.30900e+13  -1.30900e+13             0.00%
      0     0  -1.30900e+13   105  -1.30900e+13      Cuts: 85     3900    0.00%
*     0+    0                      -1.30900e+13  -1.30900e+13             0.00%
      0     0  -1.30900e+13   126  -1.30900e+13      Cuts: 75     4198    0.00%
*     0+    0                      -1.30900e+13  -1.30900e+13             0.00%
*     0+    0                      -1.30900e+13  -1.30900e+13             0.00%
*     0+    0                      -1.30900e+13  -1.30900e+13             0.00%
      0    21        cutoff        -1.30900e+13  -1.30900e+13    15458    0.00%
Elapsed time = 3.00 sec. (1470.69 ticks, tree = 0.02 MB, solutions = 7)
    222    59        cutoff        -1.30900e+13  -1.30900e+13    36485    0.00%
    859    81        cutoff        -1.30900e+13  -1.30900e+13    48872    0.00%
   1526    19  -1.30900e+13     9  -1.30900e+13  -1.30900e+13   177767    0.00%
   1896    36        cutoff        -1.30900e+13  -1.30900e+13   152557    0.00%
   2152    18        cutoff        -1.30900e+13  -1.30900e+13   177796    0.00%

GUB cover cuts applied:  1
Clique cuts applied:  16
Cover cuts applied:  485
Mixed integer rounding cuts applied:  5
Zero-half cuts applied:  9
Lift and project cuts applied:  7
Gomory fractional cuts applied:  20

Root node processing (before b&c):
  Real time             =    1.57 sec. (1457.37 ticks)
Parallel b&c, 40 threads:
  Real time             =    3.75 sec. (1387.79 ticks)
  Sync time (average)   =    1.56 sec.
  Wait time (average)   =    0.00 sec.
                          ------------
Total (root+branch&cut) =    5.32 sec. (2845.16 ticks)

Solution pool: 15 solutions saved.

MIP - Integer optimal solution:  Objective = -1.3089999690e+13
Solution time =    5.44 sec.  Iterations = 196554  Nodes = 2241
Deterministic time = 2845.19 ticks  (523.03 ticks/sec)

CPLEX> Solution 'p16' written to file 'ee.sol'.
CPLEX> 